(set-option :print-success false)
(set-logic QF_UF)
(declare-sort x137 0)
(declare-sort x93 0)
(declare-fun x1 () x93)
(declare-fun x75 () x93)
(declare-fun x49 () x93)
(declare-fun x135 () x93)
(declare-fun x54 () x93)
(declare-fun x104 (x93 x93) x93)
(assert (not (and (and (= x49 (x104 x75 x135)) (and (= x1 (x104 x54 x75)) (= (x104 x75 x75) x135))) (= x54 (x104 x135 x75)))))
(assert (not (and (and (and (= (x104 x1 x54) x49) (= (x104 x54 x54) x75)) (= x135 (x104 x54 x75))) (= (x104 x75 x54) x1))))
(assert (not (and (and (= (x104 x1 x49) x135) (and (= x49 (x104 x1 x1)) (= (x104 x54 x1) x75))) (= x54 (x104 x49 x1)))))
(assert (not (and (and (= (x104 x49 x54) x1) (and (= x54 (x104 x49 x49)) (= x75 (x104 x135 x49)))) (= x135 (x104 x54 x49)))))
(assert (not (and (and (and (= x135 (x104 x49 x75)) (= x1 (x104 x75 x75))) (= (x104 x75 x1) x54)) (= (x104 x1 x75) x49))))
(assert (let ((x128 (x104 x49 x54)) (x26 (x104 x135 x49)) (x130 (x104 x54 x135)) (x50 (x104 x54 x1)) (x120 (x104 x1 x49)) (x109 (x104 x75 x1)) (x43 (x104 x135 x135)) (x145 (x104 x49 x75)) (x131 (x104 x49 x49)) (x92 (x104 x1 x1)) (x136 (x104 x75 x135)) (x72 (x104 x54 x75)) (x24 (x104 x75 x49)) (x142 (x104 x135 x1)) (x143 (x104 x135 x75)) (x110 (x104 x1 x54)) (x74 (x104 x135 x54)) (x44 (x104 x1 x75)) (x36 (x104 x54 x54)) (x46 (x104 x75 x54)) (x157 (x104 x1 x135)) (x39 (x104 x75 x75)) (x133 (x104 x49 x135)) (x31 (x104 x49 x1)) (x52 (x104 x54 x49))) (and (or (and (not (= x135 (x104 x43 x135))) (and (and (and (not (= x49 (x104 x26 x135))) (not (= (x104 x142 x135) x1))) (not (= (x104 x143 x135) x75))) (not (= (x104 x74 x135) x54)))) (or (and (not (= x135 (x104 x130 x54))) (and (not (= (x104 x36 x54) x54)) (and (and (not (= x1 (x104 x50 x54))) (not (= (x104 x52 x54) x49))) (not (= (x104 x72 x54) x75))))) (or (and (not (= x135 (x104 x136 x75))) (and (and (and (not (= x49 (x104 x24 x75))) (not (= x1 (x104 x109 x75)))) (not (= (x104 x39 x75) x75))) (not (= (x104 x46 x75) x54)))) (or (and (not (= x135 (x104 x157 x1))) (and (not (= (x104 x110 x1) x54)) (and (and (not (= (x104 x120 x1) x49)) (not (= (x104 x92 x1) x1))) (not (= (x104 x44 x1) x75))))) (and (and (not (= (x104 x128 x49) x54)) (and (not (= x75 (x104 x145 x49))) (and (not (= (x104 x131 x49) x49)) (not (= (x104 x31 x49) x1))))) (not (= (x104 x133 x49) x135))))))) (and (or (or (= (x104 x54 x74) x135) (or (= (x104 x75 x143) x135) (or (= (x104 x49 x26) x135) (= (x104 x1 x142) x135)))) (= (x104 x135 x43) x135)) (and (and (and (or (= (x104 x135 x133) x49) (or (or (= x49 (x104 x75 x145)) (or (= x49 (x104 x49 x131)) (= (x104 x1 x31) x49))) (= (x104 x54 x128) x49))) (or (= x1 (x104 x135 x157)) (or (or (or (= (x104 x1 x92) x1) (= x1 (x104 x49 x120))) (= x1 (x104 x75 x44))) (= (x104 x54 x110) x1)))) (or (= x75 (x104 x135 x136)) (or (or (or (= x75 (x104 x49 x24)) (= x75 (x104 x1 x109))) (= x75 (x104 x75 x39))) (= (x104 x54 x46) x75)))) (or (= x54 (x104 x135 x130)) (or (or (= x54 (x104 x75 x72)) (or (= x54 (x104 x1 x50)) (= x54 (x104 x49 x52)))) (= x54 (x104 x54 x36)))))))))
(assert (not (and (and (= x135 (x104 x75 x49)) (and (= (x104 x54 x75) x1) (= x49 (x104 x75 x75)))) (= x54 (x104 x49 x75)))))
(assert (not (and (= (x104 x1 x49) x75) (and (= x54 (x104 x49 x1)) (and (= x1 (x104 x49 x49)) (= (x104 x75 x49) x135))))))
(assert (not (and (= x75 (x104 x135 x54)) (and (and (= x135 (x104 x54 x54)) (= (x104 x75 x54) x1)) (= x49 (x104 x54 x135))))))
(assert (not (and (and (= x1 (x104 x75 x49)) (and (= x54 (x104 x135 x75)) (= (x104 x75 x75) x49))) (= x135 (x104 x49 x75)))))
(assert (not (and (= (x104 x135 x54) x75) (and (and (= (x104 x75 x54) x49) (= (x104 x54 x54) x135)) (= (x104 x54 x135) x1)))))
(assert (not (and (and (= (x104 x54 x135) x49) (and (= (x104 x1 x54) x75) (= x135 (x104 x54 x54)))) (= x1 (x104 x135 x54)))))
(assert (not (and (and (= x49 (x104 x75 x1)) (and (= (x104 x75 x75) x1) (= x135 (x104 x54 x75)))) (= (x104 x1 x75) x54))))
(assert (not (and (and (and (= x1 (x104 x54 x54)) (= (x104 x49 x54) x135)) (= (x104 x54 x1) x75)) (= (x104 x1 x54) x49))))
(assert (not (and (= x1 (x104 x49 x135)) (and (and (= x54 (x104 x1 x135)) (= x49 (x104 x135 x135))) (= x75 (x104 x135 x49))))))
(assert (not (and (and (and (= x54 (x104 x75 x49)) (= (x104 x49 x49) x1)) (= x135 (x104 x49 x1))) (= x75 (x104 x1 x49)))))
(assert (not (and (and (and (= x75 (x104 x135 x54)) (= (x104 x54 x54) x49)) (= (x104 x54 x49) x1)) (= x135 (x104 x49 x54)))))
(assert (not (and (= x1 (x104 x54 x49)) (and (and (= x54 (x104 x49 x49)) (= (x104 x1 x49) x75)) (= x135 (x104 x49 x54))))))
(assert (not (and (= (x104 x49 x54) x1) (and (and (= x75 (x104 x1 x54)) (= (x104 x54 x54) x49)) (= (x104 x54 x49) x135)))))
(assert (not (and (and (= (x104 x1 x135) x54) (and (= (x104 x1 x1) x135) (= x49 (x104 x75 x1)))) (= x75 (x104 x135 x1)))))
(assert (not (and (= x1 (x104 x54 x49)) (and (= (x104 x49 x54) x75) (and (= x135 (x104 x1 x49)) (= x54 (x104 x49 x49)))))))
(assert (not (and (= x49 (x104 x1 x75)) (and (= x135 (x104 x75 x1)) (and (= (x104 x49 x75) x54) (= (x104 x75 x75) x1))))))
(assert (not (and (and (and (= x1 (x104 x54 x135)) (= x75 (x104 x135 x135))) (= (x104 x135 x75) x49)) (= x54 (x104 x75 x135)))))
(assert (not (and (= (x104 x75 x1) x49) (and (= x54 (x104 x1 x75)) (and (= x75 (x104 x1 x1)) (= x135 (x104 x49 x1)))))))
(assert (not (and (and (and (= (x104 x135 x54) x49) (= x1 (x104 x54 x54))) (= (x104 x54 x1) x75)) (= x135 (x104 x1 x54)))))
(assert (not (and (and (and (= (x104 x49 x1) x54) (= (x104 x1 x1) x135)) (= x75 (x104 x1 x135))) (= (x104 x135 x1) x49))))
(assert (not (and (= x49 (x104 x1 x54)) (and (and (= (x104 x49 x54) x75) (= x1 (x104 x54 x54))) (= x135 (x104 x54 x1))))))
(assert (not (and (= x49 (x104 x1 x135)) (and (= (x104 x135 x1) x54) (and (= (x104 x135 x135) x1) (= x75 (x104 x49 x135)))))))
(assert (not (and (= (x104 x75 x49) x135) (and (= (x104 x49 x75) x54) (and (= x1 (x104 x135 x49)) (= x75 (x104 x49 x49)))))))
(assert (not (and (and (and (= x1 (x104 x135 x135)) (= x49 (x104 x75 x135))) (= x54 (x104 x135 x1))) (= (x104 x1 x135) x75))))
(assert (not (and (= x1 (x104 x54 x75)) (and (= (x104 x75 x54) x135) (and (= (x104 x1 x75) x49) (= x54 (x104 x75 x75)))))))
(assert (not (and (= (x104 x135 x54) x49) (and (= (x104 x54 x135) x1) (and (= (x104 x49 x54) x75) (= (x104 x54 x54) x135))))))
(assert (not (and (and (and (= (x104 x49 x49) x75) (= x135 (x104 x54 x49))) (= x1 (x104 x49 x75))) (= x54 (x104 x75 x49)))))
(assert (not (and (= x54 (x104 x135 x1)) (and (= (x104 x1 x135) x75) (and (= x135 (x104 x1 x1)) (= (x104 x54 x1) x49))))))
(assert (not (and (and (and (= (x104 x1 x1) x75) (= x54 (x104 x135 x1))) (= (x104 x1 x75) x49)) (= (x104 x75 x1) x135))))
(assert (not (and (and (= x135 (x104 x75 x49)) (and (= x49 (x104 x75 x75)) (= x54 (x104 x1 x75)))) (= x1 (x104 x49 x75)))))
(assert (not (and (= x135 (x104 x54 x49)) (and (= (x104 x49 x54) x75) (and (= (x104 x49 x49) x54) (= (x104 x135 x49) x1))))))
(assert (not (and (= (x104 x75 x1) x49) (and (= x135 (x104 x1 x75)) (and (= (x104 x49 x1) x54) (= (x104 x1 x1) x75))))))
(assert (not (and (and (= (x104 x75 x54) x49) (and (= (x104 x135 x75) x1) (= x54 (x104 x75 x75)))) (= (x104 x54 x75) x135))))
(assert (not (and (and (and (= (x104 x75 x1) x54) (= x135 (x104 x1 x1))) (= (x104 x1 x135) x49)) (= (x104 x135 x1) x75))))
(assert (not (and (and (and (= x49 (x104 x135 x75)) (= x1 (x104 x75 x75))) (= x54 (x104 x75 x1))) (= x135 (x104 x1 x75)))))
(assert (and (and (not (= (x104 x54 x54) x54)) (and (and (not (= x1 (x104 x1 x1))) (not (= x49 (x104 x49 x49)))) (not (= (x104 x75 x75) x75)))) (not (= (x104 x135 x135) x135))))
(assert (not (and (= x75 (x104 x1 x135)) (and (= x49 (x104 x135 x1)) (and (= x54 (x104 x75 x135)) (= (x104 x135 x135) x1))))))
(assert (not (and (and (and (= (x104 x135 x54) x1) (= x75 (x104 x54 x54))) (= (x104 x54 x75) x49)) (= (x104 x75 x54) x135))))
(assert (not (and (= x49 (x104 x54 x135)) (and (and (= x54 (x104 x135 x135)) (= (x104 x49 x135) x1)) (= (x104 x135 x54) x75)))))
(assert (not (and (and (= x1 (x104 x135 x75)) (and (= x49 (x104 x54 x135)) (= x75 (x104 x135 x135)))) (= (x104 x75 x135) x54))))
(assert (not (and (= x135 (x104 x54 x1)) (and (= (x104 x1 x54) x49) (and (= (x104 x135 x1) x75) (= x54 (x104 x1 x1)))))))
(assert (not (and (= (x104 x49 x1) x75) (and (= x54 (x104 x1 x49)) (and (= x135 (x104 x75 x1)) (= (x104 x1 x1) x49))))))
(assert (not (and (= (x104 x135 x75) x1) (and (and (= (x104 x75 x75) x135) (= x54 (x104 x1 x75))) (= x49 (x104 x75 x135))))))
(assert (not (and (and (= x1 (x104 x54 x75)) (and (= x75 (x104 x54 x54)) (= x49 (x104 x135 x54)))) (= x135 (x104 x75 x54)))))
(assert (not (and (= (x104 x75 x49) x135) (and (= x1 (x104 x49 x75)) (and (= x54 (x104 x135 x49)) (= x75 (x104 x49 x49)))))))
(assert (not (and (and (and (= (x104 x1 x1) x135) (= x75 (x104 x54 x1))) (= (x104 x1 x135) x49)) (= x54 (x104 x135 x1)))))
(assert (not (and (= (x104 x135 x49) x1) (and (= (x104 x49 x135) x54) (and (= (x104 x1 x49) x75) (= x135 (x104 x49 x49)))))))
(assert (not (and (= (x104 x75 x1) x54) (and (= x135 (x104 x1 x75)) (and (= (x104 x54 x1) x49) (= x75 (x104 x1 x1)))))))
(assert (not (and (= x49 (x104 x54 x1)) (and (= x75 (x104 x1 x54)) (and (= (x104 x1 x1) x54) (= (x104 x49 x1) x135))))))
(assert (not (and (and (= x1 (x104 x75 x54)) (and (= (x104 x135 x75) x49) (= (x104 x75 x75) x54))) (= x135 (x104 x54 x75)))))
(assert (not (and (and (and (= x135 (x104 x75 x75)) (= x49 (x104 x54 x75))) (= (x104 x75 x135) x1)) (= x54 (x104 x135 x75)))))
(assert (not (and (and (and (= (x104 x135 x49) x75) (= x1 (x104 x49 x49))) (= (x104 x49 x1) x54)) (= (x104 x1 x49) x135))))
(assert (let ((x24 (x104 x75 x49)) (x72 (x104 x54 x75)) (x145 (x104 x49 x75)) (x52 (x104 x54 x49)) (x130 (x104 x54 x135)) (x157 (x104 x1 x135)) (x133 (x104 x49 x135)) (x39 (x104 x75 x75)) (x142 (x104 x135 x1)) (x109 (x104 x75 x1)) (x110 (x104 x1 x54)) (x46 (x104 x75 x54)) (x36 (x104 x54 x54)) (x26 (x104 x135 x49)) (x50 (x104 x54 x1)) (x74 (x104 x135 x54)) (x136 (x104 x75 x135)) (x92 (x104 x1 x1)) (x31 (x104 x49 x1)) (x128 (x104 x49 x54)) (x143 (x104 x135 x75)) (x44 (x104 x1 x75)) (x131 (x104 x49 x49)) (x120 (x104 x1 x49)) (x43 (x104 x135 x135))) (and (and (and (and (and (and (and (and (or (or (or (= x92 x75) (or (= x92 x49) (= x92 x1))) (= x54 x92)) (= x92 x135)) (or (= x120 x135) (or (= x54 x120) (or (= x120 x75) (or (= x120 x1) (= x49 x120)))))) (or (or (or (= x44 x75) (or (= x44 x49) (= x1 x44))) (= x54 x44)) (= x135 x44))) (or (or (or (= x75 x110) (or (= x110 x1) (= x110 x49))) (= x110 x54)) (= x110 x135))) (or (= x157 x135) (or (or (= x75 x157) (or (= x49 x157) (= x1 x157))) (= x157 x54)))) (and (or (= x133 x135) (or (= x54 x133) (or (or (= x133 x49) (= x133 x1)) (= x75 x133)))) (and (and (or (or (= x54 x145) (or (= x75 x145) (or (= x145 x49) (= x1 x145)))) (= x135 x145)) (and (or (= x135 x131) (or (= x54 x131) (or (= x75 x131) (or (= x131 x1) (= x131 x49))))) (or (= x31 x135) (or (= x31 x54) (or (= x31 x75) (or (= x31 x1) (= x49 x31))))))) (or (or (= x54 x128) (or (= x75 x128) (or (= x49 x128) (= x1 x128)))) (= x128 x135))))) (and (or (or (or (= x75 x136) (or (= x1 x136) (= x136 x49))) (= x136 x54)) (= x135 x136)) (and (or (= x46 x135) (or (= x54 x46) (or (= x46 x75) (or (= x49 x46) (= x1 x46))))) (and (or (or (= x54 x39) (or (or (= x39 x49) (= x1 x39)) (= x39 x75))) (= x39 x135)) (and (or (or (or (or (= x24 x49) (= x24 x1)) (= x75 x24)) (= x24 x54)) (= x135 x24)) (or (= x135 x109) (or (or (= x109 x75) (or (= x49 x109) (= x109 x1))) (= x54 x109)))))))) (and (and (and (and (or (or (= x54 x52) (or (= x75 x52) (or (= x52 x1) (= x49 x52)))) (= x52 x135)) (or (or (= x54 x50) (or (= x50 x75) (or (= x50 x1) (= x50 x49)))) (= x135 x50))) (or (= x72 x135) (or (= x72 x54) (or (or (= x72 x49) (= x1 x72)) (= x75 x72))))) (or (= x36 x135) (or (or (or (= x36 x49) (= x36 x1)) (= x75 x36)) (= x36 x54)))) (or (= x130 x135) (or (or (= x75 x130) (or (= x130 x1) (= x49 x130))) (= x54 x130))))) (and (and (and (or (or (or (= x75 x143) (or (= x49 x143) (= x1 x143))) (= x54 x143)) (= x135 x143)) (and (or (or (= x54 x142) (or (= x142 x75) (or (= x142 x1) (= x142 x49)))) (= x135 x142)) (or (or (= x54 x26) (or (or (= x26 x1) (= x49 x26)) (= x75 x26))) (= x135 x26)))) (or (= x74 x135) (or (= x54 x74) (or (= x74 x75) (or (= x49 x74) (= x1 x74)))))) (or (= x43 x135) (or (or (or (= x49 x43) (= x43 x1)) (= x43 x75)) (= x54 x43)))))))
(assert (let ((x129 (x104 x135 x1)) (x87 (x104 x49 x1)) (x47 (x104 x135 x75)) (x8 (x104 x75 x135)) (x4 (x104 x75 x75)) (x155 (x104 x1 x54)) (x149 (x104 x75 x49)) (x124 (x104 x1 x1)) (x94 (x104 x1 x75)) (x148 (x104 x49 x54)) (x60 (x104 x54 x54)) (x103 (x104 x49 x135)) (x65 (x104 x75 x1)) (x116 (x104 x49 x75)) (x132 (x104 x1 x135)) (x83 (x104 x1 x49)) (x68 (x104 x54 x1)) (x98 (x104 x135 x54)) (x7 (x104 x75 x54)) (x119 (x104 x54 x49)) (x101 (x104 x49 x49)) (x125 (x104 x135 x49)) (x99 (x104 x54 x135)) (x100 (x104 x54 x75)) (x14 (x104 x135 x135))) (let ((x134 (= x101 x75)) (x153 (= x124 x135)) (x36 (= x125 x1)) (x141 (= x75 x149)) (x79 (= x100 x135)) (x59 (= x119 x135)) (x144 (= x83 x135)) (x61 (= x135 x129)) (x150 (= x75 x132)) (x48 (= x94 x75)) (x81 (= x83 x75)) (x107 (= x49 x14)) (x57 (= x4 x49)) (x73 (= x101 x49)) (x23 (= x60 x75)) (x91 (= x54 x4)) (x131 (= x149 x1)) (x35 (= x116 x135)) (x55 (= x68 x54)) (x123 (= x135 x94)) (x70 (= x103 x135)) (x89 (= x49 x119)) (x3 (= x54 x8)) (x111 (= x119 x75)) (x12 (= x135 x14)) (x77 (= x54 x7)) (x41 (= x60 x135)) (x128 (= x1 x4)) (x156 (= x125 x75)) (x25 (= x125 x135)) (x58 (= x98 x54)) (x17 (= x75 x129)) (x133 (= x68 x1)) (x90 (= x87 x75)) (x45 (= x49 x129)) (x16 (= x7 x49)) (x115 (= x54 x103)) (x143 (= x98 x1)) (x122 (= x54 x129)) (x11 (= x47 x75)) (x88 (= x135 x87)) (x13 (= x135 x4)) (x105 (= x75 x100)) (x126 (= x75 x14)) (x69 (= x68 x135)) (x120 (= x87 x1)) (x96 (= x49 x155)) (x67 (= x99 x135)) (x9 (= x132 x135)) (x80 (= x148 x49)) (x18 (= x75 x4)) (x22 (= x116 x75)) (x30 (= x49 x65)) (x38 (= x155 x54)) (x147 (= x49 x8)) (x72 (= x132 x1)) (x62 (= x49 x100)) (x19 (= x75 x99)) (x10 (= x54 x94)) (x2 (= x75 x124)) (x106 (= x75 x103)) (x154 (= x49 x149)) (x152 (= x148 x54)) (x157 (= x1 x65)) (x31 (= x1 x94)) (x24 (= x119 x1)) (x34 (= x54 x116)) (x82 (= x98 x135)) (x52 (= x1 x129)) (x86 (= x54 x60)) (x113 (= x99 x49)) (x121 (= x135 x47)) (x27 (= x155 x135)) (x39 (= x148 x1)) (x78 (= x49 x132)) (x140 (= x148 x75)) (x146 (= x94 x49)) (x138 (= x54 x47)) (x21 (= x7 x75)) (x158 (= x47 x49)) (x44 (= x83 x1)) (x37 (= x116 x49)) (x26 (= x1 x8)) (x130 (= x103 x1)) (x33 (= x49 x103)) (x110 (= x101 x1)) (x118 (= x8 x75)) (x43 (= x1 x14)) (x92 (= x124 x1)) (x15 (= x65 x135)) (x5 (= x54 x83)) (x53 (= x101 x54)) (x42 (= x54 x132)) (x151 (= x99 x54)) (x97 (= x54 x87)) (x145 (= x1 x116)) (x66 (= x49 x87)) (x32 (= x98 x49)) (x114 (= x135 x148)) (x6 (= x65 x75)) (x28 (= x124 x49)) (x127 (= x135 x101)) (x74 (= x1 x99)) (x84 (= x135 x8)) (x136 (= x1 x7)) (x29 (= x60 x49)) (x142 (= x1 x47)) (x20 (= x54 x100)) (x117 (= x49 x83)) (x112 (= x68 x75)) (x95 (= x135 x7)) (x102 (= x54 x14)) (x85 (= x124 x54)) (x71 (= x54 x149)) (x63 (= x149 x135)) (x109 (= x155 x1)) (x50 (= x1 x60)) (x139 (= x75 x155)) (x46 (= x100 x1)) (x64 (= x49 x125)) (x51 (= x65 x54)) (x56 (= x49 x68)) (x108 (= x75 x98)) (x40 (= x119 x54)) (x76 (= x125 x54))) (and (and (or (or (and x102 x102) (or (or (or (and x76 x115) (and x122 x42)) (and x138 x3)) (and x58 x151))) (or (or (or (or (or (or (and x34 x71) (or (and x5 x97) (and x53 x53))) (and x40 x152)) (and x115 x76)) (or (or (or (or (and x85 x85) (and x97 x5)) (and x10 x51)) (and x55 x38)) (and x122 x42))) (or (or (or (and x91 x91) (or (and x10 x51) (and x34 x71))) (and x77 x20)) (and x138 x3))) (or (and x58 x151) (or (and x86 x86) (or (or (and x152 x40) (and x55 x38)) (and x20 x77)))))) (and (and (or (or (or (or (or (or (and x56 x96) (and x89 x80)) (and x62 x16)) (and x29 x29)) (and x32 x113)) (or (or (or (or (or (and x37 x154) (or (and x73 x73) (and x117 x66))) (and x89 x80)) (and x33 x64)) (or (or (or (or (and x66 x117) (and x28 x28)) (and x30 x146)) (and x96 x56)) (and x45 x78))) (or (or (and x62 x16) (or (or (and x30 x146) (and x37 x154)) (and x57 x57))) (and x147 x158)))) (or (and x107 x107) (or (and x32 x113) (or (or (and x64 x33) (and x45 x78)) (and x147 x158))))) (or (or (and x43 x43) (or (and x143 x74) (or (or (and x72 x52) (and x130 x36)) (and x26 x142)))) (or (or (and x143 x74) (or (and x50 x50) (or (and x46 x136) (or (and x24 x39) (and x109 x133))))) (or (or (or (and x72 x52) (or (or (and x31 x157) (or (and x120 x44) (and x92 x92))) (and x133 x109))) (or (and x130 x36) (or (and x39 x24) (or (or (and x120 x44) (and x110 x110)) (and x131 x145))))) (or (or (or (and x128 x128) (or (and x31 x157) (and x131 x145))) (and x136 x46)) (and x26 x142)))))) (or (or (or (and x108 x19) (or (and x23 x23) (or (or (and x111 x140) (and x139 x112)) (and x105 x21)))) (or (or (or (or (or (or (and x81 x90) (and x2 x2)) (and x48 x6)) (and x139 x112)) (and x17 x150)) (or (and x106 x156) (or (and x140 x111) (or (and x22 x141) (or (and x134 x134) (and x81 x90)))))) (or (and x118 x11) (or (or (or (and x22 x141) (and x6 x48)) (and x18 x18)) (and x21 x105))))) (or (and x126 x126) (or (or (or (and x150 x17) (and x156 x106)) (and x118 x11)) (and x108 x19)))))) (or (or (or (or (or (or (or (or (and x88 x144) (and x127 x127)) (and x63 x35)) (and x114 x59)) (and x25 x70)) (or (and x9 x61) (or (and x69 x27) (or (or (and x88 x144) (and x153 x153)) (and x123 x15))))) (or (and x121 x84) (or (and x95 x79) (or (or (and x123 x15) (and x63 x35)) (and x13 x13))))) (or (or (or (and x95 x79) (or (and x27 x69) (and x59 x114))) (and x41 x41)) (and x82 x67))) (or (and x12 x12) (or (and x82 x67) (or (or (and x61 x9) (and x70 x25)) (and x84 x121)))))))))
(assert (not (and (= x75 (x104 x54 x1)) (and (= (x104 x1 x54) x49) (and (= (x104 x1 x1) x54) (= (x104 x75 x1) x135))))))
(assert (not (and (= (x104 x54 x135) x49) (and (= x1 (x104 x135 x54)) (and (= (x104 x49 x135) x75) (= x54 (x104 x135 x135)))))))
(assert (not (and (= x135 (x104 x75 x1)) (and (and (= (x104 x135 x1) x49) (= x75 (x104 x1 x1))) (= x54 (x104 x1 x75))))))
(assert (not (and (= (x104 x135 x49) x54) (and (and (= (x104 x54 x49) x1) (= (x104 x49 x49) x135)) (= x75 (x104 x49 x135))))))
(assert (let ((x109 (x104 x1 x75)) (x142 (x104 x1 x135)) (x24 (x104 x49 x75)) (x44 (x104 x75 x1)) (x43 (x104 x135 x135)) (x145 (x104 x75 x49)) (x36 (x104 x54 x54)) (x92 (x104 x1 x1)) (x72 (x104 x75 x54)) (x120 (x104 x49 x1)) (x31 (x104 x1 x49)) (x50 (x104 x1 x54)) (x130 (x104 x135 x54)) (x143 (x104 x75 x135)) (x128 (x104 x54 x49)) (x110 (x104 x54 x1)) (x136 (x104 x135 x75)) (x131 (x104 x49 x49)) (x74 (x104 x54 x135)) (x157 (x104 x135 x1)) (x133 (x104 x135 x49)) (x46 (x104 x54 x75)) (x39 (x104 x75 x75)) (x26 (x104 x49 x135)) (x52 (x104 x49 x54))) (and (and (and (and (and (not (= x136 x130)) (and (not (= x133 x43)) (and (not (= x130 x133)) (and (and (and (and (not (= x157 x133)) (not (= x157 x136))) (not (= x130 x157))) (not (= x43 x157))) (not (= x133 x136)))))) (not (= x136 x43))) (not (= x130 x43))) (and (and (and (and (and (not (= x142 x109)) (and (not (= x109 x50)) (and (and (not (= x31 x50)) (and (not (= x31 x109)) (and (and (and (not (= x31 x92)) (not (= x92 x109))) (not (= x50 x92))) (not (= x92 x142))))) (not (= x31 x142))))) (not (= x50 x142))) (and (not (= x52 x26)) (and (not (= x26 x24)) (and (and (not (= x26 x131)) (and (and (and (and (and (not (= x131 x120)) (not (= x24 x120))) (not (= x120 x52))) (not (= x26 x120))) (not (= x24 x131))) (not (= x52 x131)))) (not (= x24 x52)))))) (and (not (= x143 x72)) (and (and (and (not (= x145 x143)) (and (not (= x145 x72)) (and (and (and (not (= x44 x72)) (and (not (= x145 x44)) (not (= x39 x44)))) (not (= x143 x44))) (not (= x145 x39))))) (not (= x72 x39))) (not (= x39 x143))))) (and (not (= x74 x36)) (and (and (not (= x46 x36)) (and (not (= x74 x128)) (and (and (and (and (not (= x36 x110)) (and (not (= x110 x46)) (not (= x128 x110)))) (not (= x74 x110))) (not (= x128 x46))) (not (= x128 x36))))) (not (= x74 x46)))))) (and (and (and (and (not (= x74 x143)) (and (and (not (= x26 x74)) (and (not (= x26 x143)) (and (not (= x43 x142)) (and (not (= x142 x74)) (and (not (= x142 x26)) (not (= x143 x142))))))) (not (= x43 x26)))) (not (= x143 x43))) (not (= x74 x43))) (and (and (and (not (= x130 x72)) (and (not (= x72 x36)) (and (not (= x52 x130)) (and (not (= x36 x52)) (and (not (= x72 x52)) (and (and (and (not (= x50 x52)) (not (= x72 x50))) (not (= x50 x36))) (not (= x50 x130)))))))) (not (= x130 x36))) (and (and (and (and (not (= x39 x46)) (and (and (and (not (= x24 x39)) (and (and (and (not (= x24 x109)) (not (= x109 x39))) (not (= x46 x109))) (not (= x109 x136)))) (not (= x24 x46))) (not (= x24 x136)))) (not (= x136 x39))) (not (= x136 x46))) (and (and (not (= x128 x133)) (and (not (= x145 x133)) (and (and (not (= x131 x133)) (and (not (= x131 x128)) (and (and (not (= x31 x133)) (and (and (not (= x145 x31)) (not (= x131 x31))) (not (= x31 x128)))) (not (= x145 x131))))) (not (= x145 x128))))) (and (not (= x110 x157)) (and (and (and (and (not (= x110 x120)) (and (not (= x120 x44)) (and (not (= x157 x92)) (and (and (not (= x92 x120)) (not (= x92 x44))) (not (= x110 x92)))))) (not (= x120 x157))) (not (= x44 x110))) (not (= x44 x157)))))))))))
(assert (not (and (and (= (x104 x49 x75) x135) (and (= x75 (x104 x49 x49)) (= (x104 x54 x49) x1))) (= x54 (x104 x75 x49)))))
(assert (not (and (= x49 (x104 x135 x1)) (and (= (x104 x1 x135) x54) (and (= x135 (x104 x1 x1)) (= (x104 x49 x1) x75))))))
(assert (not (and (= (x104 x1 x54) x75) (and (= (x104 x54 x1) x135) (and (= x1 (x104 x54 x54)) (= (x104 x75 x54) x49))))))
(assert (not (and (= x1 (x104 x54 x75)) (and (and (= (x104 x75 x75) x54) (= x135 (x104 x1 x75))) (= (x104 x75 x54) x49)))))
(assert (not (and (= x1 (x104 x75 x49)) (and (and (= x54 (x104 x1 x49)) (= (x104 x49 x49) x75)) (= x135 (x104 x49 x75))))))
(assert (not (and (= x54 (x104 x49 x75)) (and (= x1 (x104 x75 x49)) (and (= (x104 x54 x75) x135) (= x49 (x104 x75 x75)))))))
(assert (not (and (= (x104 x1 x49) x54) (and (= (x104 x49 x1) x135) (and (= x1 (x104 x49 x49)) (= x75 (x104 x54 x49)))))))
(assert (not (and (and (and (= (x104 x1 x54) x135) (= (x104 x54 x54) x49)) (= x75 (x104 x54 x49))) (= x1 (x104 x49 x54)))))
(assert (let ((x26 (x104 x49 x135)) (x28 (x104 x135 x49)) (x22 (x104 x135 x54)) (x42 (x104 x135 x135)) (x157 (x104 x1 x54)) (x31 (x104 x1 x135)) (x103 (x104 x75 x75)) (x128 (x104 x75 x1)) (x44 (x104 x1 x49)) (x130 (x104 x49 x75)) (x120 (x104 x1 x1)) (x142 (x104 x49 x54)) (x110 (x104 x1 x75)) (x133 (x104 x54 x1)) (x90 (x104 x54 x54)) (x81 (x104 x54 x135)) (x4 (x104 x54 x75)) (x57 (x104 x135 x75)) (x30 (x104 x75 x135)) (x145 (x104 x49 x1)) (x109 (x104 x135 x1)) (x124 (x104 x54 x49)) (x36 (x104 x49 x49)) (x125 (x104 x75 x54)) (x43 (x104 x75 x49))) (let ((x68 (= x54 x36)) (x5 (= x135 x125)) (x16 (= x54 x103)) (x129 (= x135 x44)) (x50 (= x44 x1)) (x61 (= x109 x135)) (x127 (= x26 x75)) (x116 (= x1 x130)) (x7 (= x128 x75)) (x64 (= x124 x1)) (x114 (= x26 x54)) (x58 (= x49 x42)) (x40 (= x1 x81)) (x15 (= x30 x75)) (x14 (= x133 x49)) (x62 (= x54 x130)) (x11 (= x54 x125)) (x69 (= x54 x57)) (x53 (= x135 x90)) (x123 (= x75 x81)) (x141 (= x49 x90)) (x37 (= x49 x103)) (x97 (= x135 x142)) (x79 (= x54 x30)) (x154 (= x130 x49)) (x48 (= x125 x49)) (x122 (= x49 x22)) (x115 (= x49 x26)) (x140 (= x142 x75)) (x74 (= x36 x49)) (x158 (= x157 x1)) (x38 (= x30 x1)) (x94 (= x75 x36)) (x106 (= x142 x54)) (x17 (= x124 x54)) (x59 (= x31 x54)) (x29 (= x43 x135)) (x33 (= x1 x4)) (x73 (= x110 x1)) (x86 (= x49 x57)) (x32 (= x125 x1)) (x3 (= x81 x49)) (x92 (= x1 x120)) (x77 (= x28 x49)) (x67 (= x81 x135)) (x76 (= x31 x49)) (x152 (= x1 x42)) (x117 (= x1 x128)) (x89 (= x54 x43)) (x9 (= x28 x135)) (x98 (= x130 x135)) (x138 (= x49 x30)) (x8 (= x75 x110)) (x45 (= x103 x135)) (x139 (= x75 x4)) (x21 (= x90 x75)) (x118 (= x54 x90)) (x136 (= x145 x1)) (x156 (= x54 x157)) (x105 (= x125 x75)) (x52 (= x36 x1)) (x71 (= x57 x1)) (x47 (= x130 x75)) (x20 (= x109 x49)) (x101 (= x43 x1)) (x87 (= x44 x75)) (x113 (= x1 x90)) (x112 (= x124 x75)) (x24 (= x120 x75)) (x84 (= x26 x135)) (x99 (= x110 x135)) (x41 (= x54 x42)) (x39 (= x54 x120)) (x111 (= x157 x75)) (x51 (= x1 x109)) (x23 (= x133 x54)) (x102 (= x75 x28)) (x34 (= x22 x1)) (x143 (= x49 x44)) (x147 (= x1 x142)) (x107 (= x124 x49)) (x150 (= x54 x4)) (x83 (= x75 x145)) (x18 (= x75 x133)) (x13 (= x28 x54)) (x126 (= x4 x135)) (x46 (= x135 x120)) (x10 (= x1 x28)) (x108 (= x135 x133)) (x88 (= x22 x75)) (x82 (= x135 x30)) (x35 (= x54 x109)) (x119 (= x49 x43)) (x144 (= x75 x31)) (x148 (= x128 x49)) (x149 (= x103 x1)) (x121 (= x31 x135)) (x146 (= x110 x49)) (x96 (= x128 x54)) (x131 (= x49 x120)) (x55 (= x26 x1)) (x80 (= x110 x54)) (x132 (= x135 x145)) (x91 (= x1 x31)) (x56 (= x103 x75)) (x19 (= x135 x124)) (x2 (= x49 x4)) (x134 (= x157 x49)) (x27 (= x22 x54)) (x12 (= x135 x42)) (x70 (= x135 x22)) (x63 (= x42 x75)) (x65 (= x54 x145)) (x151 (= x75 x109)) (x153 (= x75 x57)) (x95 (= x54 x81)) (x72 (= x49 x145)) (x100 (= x43 x75)) (x66 (= x36 x135)) (x25 (= x135 x57)) (x60 (= x128 x135)) (x78 (= x1 x133)) (x85 (= x157 x135)) (x6 (= x142 x49)) (x155 (= x44 x54))) (and (and (and (and (and (and (and (or (or (or x96 (or x65 x39)) x23) x35) (or (or (or x80 (or x155 x39)) x156) x59)) (and (and (or (or x111 (or (or x87 x24) x8)) x144) (or (or x18 (or (or x24 x83) x7)) x151)) (and (and (or x76 (or x134 (or (or x131 x143) x146))) (or (or (or (or x131 x72) x148) x14) x20)) (and (or (or x78 (or x117 (or x136 x92))) x51) (or (or x158 (or (or x50 x92) x73)) x91))))) (and (or (or (or x99 (or x46 x129)) x85) x121) (or (or x108 (or (or x132 x46) x60)) x61))) (and (and (or (or x97 (or x98 (or x66 x132))) x84) (or (or (or (or x129 x66) x29) x19) x9)) (and (and (and (or (or x112 (or (or x94 x87) x100)) x102) (or (or (or (or x94 x83) x47) x140) x127)) (and (and (or (or (or x101 (or x50 x52)) x64) x10) (or (or (or x116 (or x136 x52)) x147) x55)) (and (or x115 (or x6 (or x154 (or x74 x72)))) (or x77 (or (or x119 (or x74 x143)) x107))))) (and (or x114 (or x106 (or (or x65 x68) x62))) (or x13 (or (or (or x68 x155) x89) x17)))))) (and (and (or (or (or x45 (or x98 x99)) x126) x25) (or (or x5 (or (or x29 x60) x45)) x82)) (and (and (and (and (or (or x2 (or (or x146 x154) x37)) x86) (or (or (or x37 (or x148 x119)) x48) x138)) (and (or x71 (or (or (or x73 x116) x149) x33)) (or (or (or (or x101 x117) x149) x32) x38))) (and (or x15 (or (or (or x100 x7) x56) x105)) (or (or x139 (or (or x8 x47) x56)) x153))) (and (or (or (or (or x80 x62) x16) x150) x69) (or (or (or x16 (or x96 x89)) x11) x79))))) (and (and (or (or (or x126 (or x19 x108)) x53) x67) (or x70 (or x53 (or (or x85 x97) x5)))) (and (and (and (or x123 (or x21 (or x139 (or x112 x18)))) (or (or (or x105 (or x111 x140)) x21) x88)) (and (and (or x3 (or x141 (or (or x14 x107) x2))) (or (or x141 (or x48 (or x6 x134))) x122)) (and (or x40 (or x113 (or x33 (or x78 x64)))) (or x34 (or (or x32 (or x158 x147)) x113))))) (and (or (or (or x150 (or x17 x23)) x118) x95) (or x27 (or x118 (or x11 (or x156 x106)))))))) (and (and (or x12 (or (or (or x84 x121) x82) x67)) (or x12 (or x70 (or (or x61 x9) x25)))) (and (and (or (or (or (or x35 x13) x69) x27) x41) (or x41 (or x95 (or (or x59 x114) x79)))) (and (and (or x63 (or (or (or x127 x144) x15) x123)) (or (or (or (or x102 x151) x153) x88) x63)) (and (and (or x152 (or (or (or x91 x55) x38) x40)) (or x152 (or (or x71 (or x10 x51)) x34))) (and (or (or (or (or x115 x76) x138) x3) x58) (or (or x122 (or x86 (or x20 x77))) x58))))))))))
(assert (not (and (and (and (= (x104 x1 x54) x135) (= (x104 x54 x54) x75)) (= x49 (x104 x54 x75))) (= (x104 x75 x54) x1))))
(assert (not (and (and (= (x104 x135 x49) x1) (and (= x49 (x104 x135 x135)) (= x54 (x104 x75 x135)))) (= (x104 x49 x135) x75))))
(assert (let ((x44 (x104 x75 x75)) (x110 (x104 x54 x54)) (x120 (x104 x49 x49)) (x157 (x104 x135 x135)) (x92 (x104 x1 x1))) (and (and (and (not (= x75 (x104 x44 x44))) (and (not (= (x104 x120 x120) x49)) (not (= (x104 x92 x92) x1)))) (not (= x54 (x104 x110 x110)))) (not (= x135 (x104 x157 x157))))))
(assert (not (and (and (= (x104 x135 x1) x75) (and (= (x104 x49 x135) x54) (= (x104 x135 x135) x1))) (= (x104 x1 x135) x49))))
(assert (not (and (and (and (= x1 (x104 x49 x54)) (= x135 (x104 x54 x54))) (= (x104 x54 x135) x75)) (= x49 (x104 x135 x54)))))
(assert (let ((x128 (x104 x75 x75)) (x24 (x104 x54 x49)) (x50 (x104 x54 x54)) (x44 (x104 x1 x49)) (x39 (x104 x49 x54)) (x136 (x104 x75 x54)) (x31 (x104 x1 x75)) (x52 (x104 x135 x1)) (x74 (x104 x54 x135)) (x120 (x104 x49 x1)) (x133 (x104 x54 x1)) (x110 (x104 x49 x49)) (x43 (x104 x135 x135)) (x92 (x104 x1 x1)) (x109 (x104 x1 x54)) (x36 (x104 x135 x49)) (x130 (x104 x49 x135)) (x142 (x104 x135 x75)) (x72 (x104 x1 x135)) (x46 (x104 x54 x75)) (x157 (x104 x75 x1)) (x143 (x104 x135 x54)) (x26 (x104 x75 x135)) (x131 (x104 x75 x49)) (x145 (x104 x49 x75))) (or (or (or (or (and (and (and (= x145 x131) (and (= x110 x110) (= x44 x120))) (= x39 x24)) (= x36 x130)) (and (and (and (and (= x120 x44) (= x92 x92)) (= x157 x31)) (= x109 x133)) (= x72 x52))) (and (and (= x46 x136) (and (= x128 x128) (and (= x157 x31) (= x145 x131)))) (= x26 x142))) (and (and (and (and (= x109 x133) (= x24 x39)) (= x136 x46)) (= x50 x50)) (= x143 x74))) (and (and (= x74 x143) (and (= x142 x26) (and (= x52 x72) (= x130 x36)))) (= x43 x43)))))
(assert (let ((x110 (x104 x54 (x104 x54 x54))) (x120 (x104 x49 (x104 x49 x49))) (x92 (x104 x1 (x104 x1 x1))) (x44 (x104 x75 (x104 x75 x75))) (x157 (x104 x135 (x104 x135 x135)))) (or (and (and (not (= x135 x110)) (and (not (= x135 x44)) (and (not (= x120 x135)) (not (= x92 x135))))) (not (= x157 x135))) (or (and (not (= x157 x54)) (and (not (= x54 x110)) (and (and (not (= x54 x92)) (not (= x54 x120))) (not (= x54 x44))))) (or (and (and (and (not (= x75 x44)) (and (not (= x92 x75)) (not (= x75 x120)))) (not (= x75 x110))) (not (= x157 x75))) (or (and (not (= x157 x49)) (and (not (= x110 x49)) (and (not (= x44 x49)) (and (not (= x92 x49)) (not (= x49 x120)))))) (and (not (= x157 x1)) (and (and (not (= x44 x1)) (and (not (= x120 x1)) (not (= x92 x1)))) (not (= x1 x110))))))))))
(assert (not (and (and (and (= x135 (x104 x49 x75)) (= (x104 x75 x75) x54)) (= x1 (x104 x75 x54))) (= x49 (x104 x54 x75)))))
(assert (not (and (= (x104 x135 x49) x75) (and (and (= (x104 x75 x49) x54) (= x135 (x104 x49 x49))) (= (x104 x49 x135) x1)))))
(assert (not (and (= x54 (x104 x49 x135)) (and (and (= (x104 x135 x135) x49) (= x1 (x104 x54 x135))) (= (x104 x135 x49) x75)))))
(assert (not (and (and (and (= (x104 x75 x54) x1) (= x49 (x104 x54 x54))) (= x135 (x104 x54 x49))) (= x75 (x104 x49 x54)))))
(assert (not (and (and (= (x104 x49 x75) x54) (and (= x75 (x104 x49 x49)) (= (x104 x1 x49) x135))) (= (x104 x75 x49) x1))))
(assert (not (and (= (x104 x49 x1) x75) (and (= (x104 x1 x49) x135) (and (= x54 (x104 x75 x1)) (= x49 (x104 x1 x1)))))))
(assert (not (and (= (x104 x135 x49) x75) (and (= x54 (x104 x49 x135)) (and (= (x104 x49 x49) x135) (= (x104 x75 x49) x1))))))
(assert (and (and (and (not (= x54 x75)) (and (and (and (not (= x49 x75)) (and (and (not (= x54 x1)) (and (not (= x1 x75)) (not (= x49 x1)))) (not (= x1 x135)))) (not (= x54 x49))) (not (= x49 x135)))) (not (= x75 x135))) (not (= x54 x135))))
(assert (not (and (and (and (= x49 (x104 x75 x75)) (= x135 (x104 x1 x75))) (= x54 (x104 x75 x49))) (= x1 (x104 x49 x75)))))
(assert (not (and (= (x104 x1 x135) x54) (and (and (= (x104 x54 x135) x49) (= (x104 x135 x135) x1)) (= x75 (x104 x135 x1))))))
(assert (not (and (and (and (= (x104 x75 x54) x135) (= (x104 x54 x54) x49)) (= (x104 x54 x49) x1)) (= (x104 x49 x54) x75))))
(assert (not (and (= (x104 x54 x1) x135) (and (= x75 (x104 x1 x54)) (and (= x49 (x104 x135 x1)) (= (x104 x1 x1) x54))))))
(assert (not (and (= (x104 x1 x49) x54) (and (= x75 (x104 x49 x1)) (and (= (x104 x49 x49) x1) (= x135 (x104 x54 x49)))))))
(assert (not (and (and (= (x104 x54 x1) x49) (and (= x135 (x104 x75 x54)) (= x1 (x104 x54 x54)))) (= x75 (x104 x1 x54)))))
(assert (not (and (= (x104 x135 x54) x1) (and (and (= x49 (x104 x1 x54)) (= (x104 x54 x54) x135)) (= x75 (x104 x54 x135))))))
(assert (not (and (and (= (x104 x135 x75) x54) (and (= (x104 x135 x135) x75) (= (x104 x1 x135) x49))) (= x1 (x104 x75 x135)))))
(assert (not (and (= x75 (x104 x54 x1)) (and (and (= x49 (x104 x75 x1)) (= (x104 x1 x1) x54)) (= (x104 x1 x54) x135)))))
(assert (not (and (= x75 (x104 x54 x135)) (and (and (= (x104 x135 x135) x54) (= x49 (x104 x75 x135))) (= x1 (x104 x135 x54))))))
(assert (not (and (= x54 (x104 x1 x135)) (and (and (= (x104 x54 x135) x75) (= (x104 x135 x135) x1)) (= (x104 x135 x1) x49)))))
(assert (not (and (= x49 (x104 x75 x54)) (and (= x1 (x104 x54 x75)) (and (= x75 (x104 x54 x54)) (= (x104 x49 x54) x135))))))
(assert (not (and (= x1 (x104 x54 x135)) (and (and (= (x104 x1 x135) x49) (= x54 (x104 x135 x135))) (= (x104 x135 x54) x75)))))
(assert (not (and (= x1 (x104 x49 x135)) (and (= (x104 x135 x49) x54) (and (= x75 (x104 x1 x135)) (= (x104 x135 x135) x49))))))
(assert (not (and (= (x104 x1 x54) x135) (and (= (x104 x54 x1) x49) (and (= x75 (x104 x135 x54)) (= x1 (x104 x54 x54)))))))
(assert (not (and (and (and (= (x104 x135 x135) x49) (= x1 (x104 x75 x135))) (= x54 (x104 x135 x49))) (= (x104 x49 x135) x75))))
(assert (not (and (and (= (x104 x75 x135) x1) (and (= (x104 x49 x75) x54) (= (x104 x75 x75) x135))) (= x49 (x104 x135 x75)))))
(assert (not (and (= (x104 x135 x49) x1) (and (and (= (x104 x49 x49) x135) (= x54 (x104 x1 x49))) (= x75 (x104 x49 x135))))))
(assert (not (and (= (x104 x54 x135) x1) (and (= x49 (x104 x135 x54)) (and (= (x104 x1 x135) x75) (= x54 (x104 x135 x135)))))))
(assert (not (and (and (= (x104 x135 x75) x54) (and (= x75 (x104 x135 x135)) (= x1 (x104 x49 x135)))) (= (x104 x75 x135) x49))))
(assert (not (and (= (x104 x1 x75) x135) (and (= x49 (x104 x75 x1)) (and (= x1 (x104 x75 x75)) (= (x104 x135 x75) x54))))))
(assert (not (and (and (= x135 (x104 x75 x1)) (and (= (x104 x54 x75) x49) (= (x104 x75 x75) x1))) (= (x104 x1 x75) x54))))
(assert (not (and (= x1 (x104 x135 x75)) (and (and (= x135 (x104 x75 x75)) (= x49 (x104 x1 x75))) (= x54 (x104 x75 x135))))))
(assert (or (and (and (and (not (= (x104 x135 (x104 x135 x75)) x75)) (and (not (= (x104 x135 (x104 x135 x49)) x49)) (not (= x1 (x104 x135 (x104 x135 x1)))))) (not (= (x104 x135 (x104 x135 x54)) x54))) (not (= (x104 x135 (x104 x135 x135)) x135))) (or (or (and (and (not (= x54 (x104 x75 (x104 x75 x54)))) (and (not (= (x104 x75 (x104 x75 x75)) x75)) (and (not (= (x104 x75 (x104 x75 x49)) x49)) (not (= x1 (x104 x75 (x104 x75 x1))))))) (not (= (x104 x75 (x104 x75 x135)) x135))) (or (and (not (= x135 (x104 x1 (x104 x1 x135)))) (and (not (= x54 (x104 x1 (x104 x1 x54)))) (and (and (not (= x1 (x104 x1 (x104 x1 x1)))) (not (= x49 (x104 x1 (x104 x1 x49))))) (not (= x75 (x104 x1 (x104 x1 x75))))))) (and (not (= x135 (x104 x49 (x104 x49 x135)))) (and (and (and (not (= (x104 x49 (x104 x49 x49)) x49)) (not (= (x104 x49 (x104 x49 x1)) x1))) (not (= (x104 x49 (x104 x49 x75)) x75))) (not (= (x104 x49 (x104 x49 x54)) x54)))))) (and (not (= (x104 x54 (x104 x54 x135)) x135)) (and (and (not (= x75 (x104 x54 (x104 x54 x75)))) (and (not (= (x104 x54 (x104 x54 x49)) x49)) (not (= x1 (x104 x54 (x104 x54 x1)))))) (not (= (x104 x54 (x104 x54 x54)) x54)))))))
(assert (not (and (= (x104 x75 x135) x49) (and (and (= (x104 x135 x135) x75) (= (x104 x49 x135) x54)) (= (x104 x135 x75) x1)))))
(assert (not (and (and (= x135 (x104 x54 x75)) (and (= (x104 x54 x54) x75) (= x1 (x104 x49 x54)))) (= (x104 x75 x54) x49))))
(assert (let ((x110 (x104 x54 x54)) (x157 (x104 x135 x135)) (x44 (x104 x75 x75)) (x120 (x104 x49 x49)) (x92 (x104 x1 x1))) (or (and (not (= x135 x157)) (and (not (= x110 x135)) (and (and (not (= x92 x135)) (not (= x135 x120))) (not (= x135 x44))))) (or (or (and (not (= x75 x157)) (and (and (and (not (= x75 x92)) (not (= x120 x75))) (not (= x75 x44))) (not (= x75 x110)))) (or (and (not (= x157 x49)) (and (and (not (= x44 x49)) (and (not (= x120 x49)) (not (= x49 x92)))) (not (= x110 x49)))) (and (and (and (not (= x1 x44)) (and (not (= x1 x92)) (not (= x120 x1)))) (not (= x110 x1))) (not (= x1 x157))))) (and (not (= x54 x157)) (and (not (= x110 x54)) (and (not (= x54 x44)) (and (not (= x92 x54)) (not (= x54 x120))))))))))
(assert (not (and (and (and (= x1 (x104 x49 x49)) (= (x104 x135 x49) x54)) (= (x104 x49 x1) x75)) (= x135 (x104 x1 x49)))))
(assert (not (and (and (and (= x54 (x104 x135 x1)) (= (x104 x1 x1) x49)) (= (x104 x1 x49) x75)) (= x135 (x104 x49 x1)))))
(assert (and (and (and (or (or (= x75 (x104 (x104 x54 x75) x54)) (or (= (x104 (x104 x75 x75) x75) x75) (or (= (x104 (x104 x49 x75) x49) x75) (= (x104 (x104 x1 x75) x1) x75)))) (= x75 (x104 (x104 x135 x75) x135))) (and (or (or (= (x104 (x104 x54 x1) x54) x1) (or (= x1 (x104 (x104 x75 x1) x75)) (or (= (x104 (x104 x49 x1) x49) x1) (= (x104 (x104 x1 x1) x1) x1)))) (= x1 (x104 (x104 x135 x1) x135))) (or (or (= x49 (x104 (x104 x54 x49) x54)) (or (or (= (x104 (x104 x49 x49) x49) x49) (= x49 (x104 (x104 x1 x49) x1))) (= x49 (x104 (x104 x75 x49) x75)))) (= x49 (x104 (x104 x135 x49) x135))))) (or (= x54 (x104 (x104 x135 x54) x135)) (or (or (or (= x54 (x104 (x104 x49 x54) x49)) (= x54 (x104 (x104 x1 x54) x1))) (= x54 (x104 (x104 x75 x54) x75))) (= (x104 (x104 x54 x54) x54) x54)))) (or (or (or (= (x104 (x104 x75 x135) x75) x135) (or (= x135 (x104 (x104 x49 x135) x49)) (= x135 (x104 (x104 x1 x135) x1)))) (= x135 (x104 (x104 x54 x135) x54))) (= (x104 (x104 x135 x135) x135) x135))))
(assert (not (and (= x75 (x104 x54 x49)) (and (and (= (x104 x49 x49) x54) (= (x104 x75 x49) x135)) (= x1 (x104 x49 x54))))))
(assert (not (and (= x49 (x104 x54 x75)) (and (and (= x1 (x104 x49 x75)) (= x54 (x104 x75 x75))) (= x135 (x104 x75 x54))))))
(assert (not (and (= (x104 x54 x1) x49) (and (= (x104 x1 x54) x135) (and (= (x104 x49 x1) x75) (= x54 (x104 x1 x1)))))))
(assert (not (and (and (= x54 (x104 x75 x135)) (and (= (x104 x49 x75) x1) (= (x104 x75 x75) x135))) (= x49 (x104 x135 x75)))))
(assert (not (and (and (= x49 (x104 x135 x54)) (and (= (x104 x135 x135) x54) (= (x104 x75 x135) x1))) (= x75 (x104 x54 x135)))))
(assert (not (and (= x54 (x104 x75 x1)) (and (and (= (x104 x1 x1) x75) (= x135 (x104 x54 x1))) (= (x104 x1 x75) x49)))))
(assert (not (and (= x135 (x104 x49 x75)) (and (= x54 (x104 x75 x49)) (and (= x49 (x104 x75 x75)) (= x1 (x104 x135 x75)))))))
(assert (not (and (and (and (= (x104 x135 x54) x1) (= x49 (x104 x54 x54))) (= x75 (x104 x54 x49))) (= x135 (x104 x49 x54)))))
(assert (not (and (and (and (= (x104 x49 x49) x135) (= (x104 x54 x49) x75)) (= x1 (x104 x49 x135))) (= x54 (x104 x135 x49)))))
(assert (not (and (and (= x135 (x104 x49 x54)) (and (= x54 (x104 x49 x49)) (= (x104 x75 x49) x1))) (= x75 (x104 x54 x49)))))
(assert (not (and (and (and (= x75 (x104 x54 x135)) (= x49 (x104 x135 x135))) (= x1 (x104 x135 x49))) (= x54 (x104 x49 x135)))))
(assert (not (and (and (= (x104 x1 x49) x54) (and (= (x104 x135 x1) x75) (= (x104 x1 x1) x49))) (= x135 (x104 x49 x1)))))
(assert (not (and (= x1 (x104 x75 x135)) (and (= (x104 x135 x75) x49) (and (= (x104 x135 x135) x75) (= x54 (x104 x1 x135)))))))
(assert (not (and (= x54 (x104 x49 x1)) (and (and (= (x104 x1 x1) x49) (= (x104 x54 x1) x135)) (= x75 (x104 x1 x49))))))
(check-sat)
(exit)
